words_hard_train/163.qaiger
aag 72 16 0 1 56
2
4
14
16
26
28
38
40
62
64
68
70
80
82
94
96
145
6 2 4
8 3 5
10 7 9
12 11 7
18 14 16
20 15 17
22 19 21
24 12 23
30 26 28
32 11 30
34 25 33
36 10 27
42 38 40
44 37 43
46 27 29
48 47 31
50 45 49
52 34 51
54 39 41
56 10 55
58 57 48
60 52 59
66 62 64
72 69 71
74 66 73
76 68 70
78 75 77
84 81 83
86 80 82
88 85 87
90 79 88
92 91 87
98 95 97
100 94 96
102 99 101
104 93 103
106 92 102
108 105 107
110 60 109
112 22 9
114 48 100
116 55 43
118 115 116
120 113 119
122 100 117
124 77 73
126 124 65
128 127 67
130 123 129
132 78 89
134 133 91
136 130 135
138 124 62
140 136 139
142 120 140
144 110 142
i0 1 x1[6]
i1 2 y2[6]
i2 1 x1[7]
i3 2 y2[7]
i4 1 x1[5]
i5 2 y2[5]
i6 1 x1[4]
i7 2 y2[4]
i8 1 x1[0]
i9 2 y2[0]
i10 1 x1[1]
i11 2 y2[1]
i12 1 x1[2]
i13 2 y2[2]
i14 1 x1[3]
i15 2 y2[3]
o0 bool[0]
c
simplified
  !=
    subtract
      1
      unary minus
        137
    add
      1 x1
      2 y2
