words_hard_train/163.qaiger.qdimacs
p cnf 72 169
a 1 34 7 40 13 47 19 31 0
e 2 3 4 5 6 8 9 10 11 12 14 15 16 17 18 20 21 22 23 24 25 26 27 28 29 30 32 33 35 36 37 38 39 41 42 43 44 45 46 48 49 50 51 52 53 54 55 56 57 58 59 60 61 62 63 64 65 66 67 68 69 70 71 72 0
-1 -2 3 0
1 -3 0
2 -3 0
1 2 4 0
-1 -4 0
-2 -4 0
3 4 5 0
-3 -5 0
-4 -5 0
5 3 6 0
-5 -6 0
-3 -6 0
-7 -8 9 0
7 -9 0
8 -9 0
7 8 10 0
-7 -10 0
-8 -10 0
9 10 11 0
-9 -11 0
-10 -11 0
-6 11 12 0
6 -12 0
-11 -12 0
-13 -14 15 0
13 -15 0
14 -15 0
5 -15 16 0
-5 -16 0
15 -16 0
12 16 17 0
-12 -17 0
-16 -17 0
-5 13 18 0
5 -18 0
-13 -18 0
-19 -20 21 0
19 -21 0
20 -21 0
18 21 22 0
-18 -22 0
-21 -22 0
13 14 23 0
-13 -23 0
-14 -23 0
23 15 24 0
-23 -24 0
-15 -24 0
22 24 25 0
-22 -25 0
-24 -25 0
-17 25 26 0
17 -26 0
-25 -26 0
19 20 27 0
-19 -27 0
-20 -27 0
-5 27 28 0
5 -28 0
-27 -28 0
28 -24 29 0
-28 -29 0
24 -29 0
-26 29 30 0
26 -30 0
-29 -30 0
-31 -32 33 0
31 -33 0
32 -33 0
34 35 36 0
-34 -36 0
-35 -36 0
-33 36 37 0
33 -37 0
-36 -37 0
-34 -35 38 0
34 -38 0
35 -38 0
37 38 39 0
-37 -39 0
-38 -39 0
40 41 42 0
-40 -42 0
-41 -42 0
-40 -41 43 0
40 -43 0
41 -43 0
42 43 44 0
-42 -44 0
-43 -44 0
39 -44 45 0
-39 -45 0
44 -45 0
45 43 46 0
-45 -46 0
-43 -46 0
47 48 49 0
-47 -49 0
-48 -49 0
-47 -48 50 0
47 -50 0
48 -50 0
49 50 51 0
-49 -51 0
-50 -51 0
46 51 52 0
-46 -52 0
-51 -52 0
-46 -51 53 0
46 -53 0
51 -53 0
52 53 54 0
-52 -54 0
-53 -54 0
-30 54 55 0
30 -55 0
-54 -55 0
-11 4 56 0
11 -56 0
-4 -56 0
-24 -50 57 0
24 -57 0
50 -57 0
27 21 58 0
-27 -58 0
-21 -58 0
57 -58 59 0
-57 -59 0
58 -59 0
56 59 60 0
-56 -60 0
-59 -60 0
-50 58 61 0
50 -61 0
-58 -61 0
38 36 62 0
-38 -62 0
-36 -62 0
-62 32 63 0
62 -63 0
-32 -63 0
63 33 64 0
-63 -64 0
-33 -64 0
61 64 65 0
-61 -65 0
-64 -65 0
-39 44 66 0
39 -66 0
-44 -66 0
66 45 67 0
-66 -67 0
-45 -67 0
-65 67 68 0
65 -68 0
-67 -68 0
-62 -31 69 0
62 -69 0
31 -69 0
-68 69 70 0
68 -70 0
-69 -70 0
-60 -70 71 0
60 -71 0
70 -71 0
-55 -71 72 0
55 -72 0
71 -72 0
-72 0
